(set-info :smt-lib-version 2.6)
(set-logic UFNIRA)
(set-info :source |
Generated by: Mirek Olšák, Mikoláš Janota, Chad E. Brown
Generated on: 2024-04-14
Application: Mathematics challenges involving function synthesis
Publications: https://arxiv.org/abs/2404.12048
From a collection by: Vít Musil
Source url: https://prase.cz/library/FunkcionalniRovniceVM/FunkcionalniRovniceVM.pdf
Problem number: Úloha 53
Original source: APMO-2002-5
|)
(set-info :license "https://creativecommons.org/licenses/by-nc/4.0/")
(set-info :category "crafted")
(set-info :status unsat)

; Header
(declare-fun roots (Int) Real)
(declare-const roots_bound Int)
(declare-fun f (Real) Real)
(assert (exists ((x Real)) (=> (= (f x) 0.0) (exists ((k Int)) (and (<= 0 k roots_bound) (= x (roots k))))))) ; finitely_many_roots

; Equations
(assert (forall ((x Real) (y Real)) (= (f (+ (* x x x x) y)) (+ (* (* x x x) (f x)) (f (f y))))))

; Find all possible f

; Solutions

(assert (not (forall ((x Real)) (= (f x) x))))

(check-sat)
(exit)
